
x = 50;
y = 100;
c = 5000;
n = 100;
w = [169 16 16 16 1 1 1 1 225 4 4 4 4 4 4 4 1 1 289 25 25 25 4 4 1 1 121 121 81 4 4 4 4 1 1 400 25 25 25 25 121 121 9 9 9 4 1 1 1225 144 144 121 1 1 1 1 1 1 1 1 1 1 1 225 225 225 4 4 4 4 4 4 4 1 1 49 49 25 4 4 1 1 361 36 36 36 1 1 1 1 1 1 16 16 16 16 9 1 1 1];
p = [169 16 16 16 1 1 1 1 225 4 4 4 4 4 4 4 1 1 289 25 25 25 4 4 1 1 121 121 81 4 4 4 4 1 1 400 25 25 25 25 121 121 9 9 9 4 1 1 1225 144 144 121 1 1 1 1 1 1 1 1 1 1 1 225 225 225 4 4 4 4 4 4 4 1 1 49 49 25 4 4 1 1 361 36 36 36 1 1 1 1 1 1 16 16 16 16 9 1 1 1];
s = [13 4 4 4 1 1 1 1 15 2 2 2 2 2 2 2 1 1 17 5 5 5 2 2 1 1 11 11 9 2 2 2 2 1 1 20 5 5 5 5 11 11 3 3 3 2 1 1 35 12 12 11 1 1 1 1 1 1 1 1 1 1 1 15 15 15 2 2 2 2 2 2 2 1 1 7 7 5 2 2 1 1 19 6 6 6 1 1 1 1 1 1 4 4 4 4 3 1 1 1];

